(set-logic ALL)
(declare-fun seed0_T_1 () Bool)
(declare-fun seed0_T_2 () Bool)
(declare-fun seed0_var_0xINPUT_200059 () String)
(assert (and (or (= seed0_T_1 (not (= "" seed0_var_0xINPUT_200059))) (=> (str.suffixof (str.++ seed0_var_0xINPUT_200059 "mG") (str.++ seed0_var_0xINPUT_200059 "dPxrgyS7av6kUn3EqYN")) (str.suffixof (str.++ seed0_var_0xINPUT_200059 "") (str.++ seed0_var_0xINPUT_200059 "AIkPLjy2N")))) (or seed0_T_1 (str.<= (str.++ seed0_var_0xINPUT_200059 "kc3Y2yCpeorgPvt") (str.++ seed0_var_0xINPUT_200059 "9WNyGfADJE"))) (or (= seed0_T_2 (= seed0_var_0xINPUT_200059 "array")) (or (str.< (str.++ seed0_var_0xINPUT_200059 "UcMDgA0I3") (str.++ seed0_var_0xINPUT_200059 "")) (str.contains (str.++ seed0_var_0xINPUT_200059 "v518YG9xgLZA0") (str.++ seed0_var_0xINPUT_200059 "LlS9vsbEoDxP1qNd4Vg")))) (or seed0_T_2 (and (str.contains (str.++ seed0_var_0xINPUT_200059 "TUVPpkQ93tRjGr") (str.++ seed0_var_0xINPUT_200059 "Ggy3cPzAelY")) (str.<= (str.++ seed0_var_0xINPUT_200059 "YXpNEhW3") (str.++ seed0_var_0xINPUT_200059 "bgfFk57Vn36aJHjMiI9"))))))
(check-sat)
(exit)